self-compositions/words_1/words_153_SAT.qaiger.qdimacs
p cnf 52 109
a 9 10 11 12 13 14 15 16 0
e 1 2 3 4 5 6 7 8 17 18 19 20 21 22 23 24 25 26 27 28 29 30 31 32 33 34 35 36 37 38 39 40 41 42 43 44 45 46 47 48 49 50 51 52 0
14 13 17 0
-14 -17 0
-13 -17 0
-17 15 18 0
17 -18 0
-15 -18 0
18 16 19 0
-18 -19 0
-16 -19 0
-18 -16 20 0
18 -20 0
16 -20 0
20 19 21 0
-20 -21 0
-19 -21 0
21 -5 22 0
-21 -22 0
5 -22 0
-21 5 23 0
21 -23 0
-5 -23 0
17 -15 24 0
-17 -24 0
15 -24 0
24 18 25 0
-24 -25 0
-18 -25 0
-25 -4 26 0
25 -26 0
4 -26 0
25 4 27 0
-25 -27 0
-4 -27 0
-14 -13 28 0
14 -28 0
13 -28 0
28 17 29 0
-28 -29 0
-17 -29 0
29 3 30 0
-29 -30 0
-3 -30 0
-29 -3 31 0
29 -31 0
3 -31 0
-13 -2 32 0
13 -32 0
2 -32 0
12 1 33 0
-12 -33 0
-1 -33 0
13 2 34 0
-13 -34 0
-2 -34 0
34 -33 35 0
-34 -35 0
33 -35 0
35 32 36 0
-35 -36 0
-32 -36 0
-36 31 37 0
36 -37 0
-31 -37 0
37 30 38 0
-37 -38 0
-30 -38 0
-38 27 39 0
38 -39 0
-27 -39 0
39 26 40 0
-39 -40 0
-26 -40 0
40 23 41 0
-40 -41 0
-23 -41 0
41 22 42 0
-41 -42 0
-22 -42 0
-7 -6 43 0
7 -43 0
6 -43 0
-43 19 44 0
43 -44 0
-19 -44 0
-44 42 45 0
44 -45 0
-42 -45 0
-19 6 46 0
19 -46 0
-6 -46 0
-46 7 47 0
46 -47 0
-7 -47 0
-47 -42 48 0
47 -48 0
42 -48 0
48 45 49 0
-48 -49 0
-45 -49 0
49 8 50 0
-49 -50 0
-8 -50 0
-49 -8 51 0
49 -51 0
8 -51 0
51 50 52 0
-51 -52 0
-50 -52 0
-52 0
