words_easy_train/words_153_SAT.qaiger
aag 90 16 0 1 74
2
14
16
18
22
30
28
10
32
20
26
24
4
8
12
6
180
34 21 19
36 34 23
38 36 25
40 38 27
42 20 18
44 43 23
46 45 24
48 47 39
50 48 27
52 51 41
54 52 28
56 53 29
58 57 55
60 39 26
62 60 46
64 63 52
66 23 19
68 24 20
70 68 66
72 70 65
74 72 59
76 57 30
78 56 31
80 79 77
82 81 74
84 80 75
86 85 83
88 86 14
90 87 15
92 73 58
94 93 75
96 94 12
98 95 13
100 23 21
102 100 25
104 101 24
106 105 103
108 107 9
110 22 20
112 111 101
114 112 7
116 20 5
118 21 4
120 18 2
122 121 119
124 123 117
126 124 115
128 113 6
130 106 8
132 131 129
134 132 127
136 135 109
138 136 10
140 71 64
142 137 11
144 143 73
146 144 141
148 147 139
150 149 99
152 151 97
154 153 91
156 155 89
158 33 16
160 32 17
162 161 159
164 163 78
166 162 79
168 167 165
170 169 82
172 168 83
174 173 171
176 174 156
178 175 157
180 179 177
i0 1 x1[0]
i1 1 x1[6]
i2 1 x1[7]
i3 2 y2[0]
i4 2 y2[2]
i5 2 y2[6]
i6 2 y2[5]
i7 1 x1[4]
i8 2 y2[7]
i9 2 y2[1]
i10 2 y2[4]
i11 2 y2[3]
i12 1 x1[1]
i13 1 x1[3]
i14 1 x1[5]
i15 1 x1[2]
o0 bv[0]
c
simplified
  >
    subtract
      invert
        -11
      2 y2
    1 x1
